94 169 141 152 151 36 186 95 117 129 120 172 24 167 88 66 135 57 113 185 110 125 37 18 97 178 10 15 101 196 108 165 21 54 59 72 161 192 166 96 8 134 180 38 31 85 63 170 157 194 130 25 188 121 184 68 116 112 155 87 109 83 2 179 47 29 145 162 176 103 123 35 65 19 28 158 119 138 30 149 156 197 90 133 23 89 26 107 127 118 100 99 102 70 174 73 16 114 190 159 39 46 182 164 171 64 93 79 56 181 193 1 77 168 27 177 4 122 20 92 45 163 3 137 62 153 78 49 71 34 195 60 154 124 42 67 106 144 33 111 98 75 82 17 12 48 187 132 173 105 147 140 86 146 43 76 40 52 126 143 160 199 58 84 51 69 91 7 74 6 22 32 189 81 150 104 131 191 53 148 136 128 0 41 115 44 198 11 61 175 50 14 142 183 139 5 55 9 80 13 

